SCIP version 5.0.0 [precision: 8 byte] [memory: block] [mode: optimized] [LP solver: NONE] [GitHash: 3bbd232]
Copyright (C) 2002-2017 Konrad-Zuse-Zentrum fuer Informationstechnik Berlin (ZIB)

External codes: 
  Readline EditLine w  GNU library for command line editing (gnu.org/s/readline)
  CppAD 20160000.1     Algorithmic Differentiation of C++ algorithms developed by B. Bell (www.coin-or.org/CppAD)
  ZLIB 1.2.5           General purpose compression library by J. Gailly and M. Adler (zlib.net)
  GMP 6.1.2            GNU Multiple Precision Arithmetic Library developed by T. Granlund (gmplib.org)

user parameter file <scip.set> not found - using default parameters

read problem <../../Split_data/output/biodeg/3/0_sample_biodeg.logreg>
============

File name	:	../../Split_data/output/biodeg/3/0_sample_biodeg.logreg
Problem name 	:	0_sample_biodeg
Number of data	:	844
Number of var	:	41
The given data has linear dependence
1 sets of column vector are linearly dependent:
{ 19}, 

[dim=1] time: 0.0341
[dim=2] time: 0.066411
[dim=3] time: 0.097374
[dim=4] time: 0.129564
[dim=5] time: 0.160178
[dim=6] time: 0.192078
[dim=7] time: 0.226612
[dim=8] time: 0.263708
[dim=9] time: 0.296088
[dim=10] time: 0.323166
[dim=11] time: 0.357026
[dim=12] time: 0.384917
[dim=13] time: 0.411459
[dim=14] time: 0.436441
[dim=15] time: 0.460293
[dim=16] time: 0.488907
[dim=17] time: 0.520277
[dim=18] time: 0.545033
[dim=19] time: 0.578638
[dim=20] time: 0.60087
[dim=21] time: 0.625177
[dim=22] time: 0.646302
[dim=23] time: 0.670952
[dim=24] Time of forward = 0.694285sec.
AIC: 517.301
k: 23

[dim=40] time: 0.181913
[dim=39] time: 0.221164
[dim=38] time: 0.260087
[dim=37] time: 0.299299
[dim=36] time: 0.336549
[dim=35] time: 0.386678
[dim=34] time: 0.422356
[dim=33] time: 0.472751
[dim=32] time: 0.513681
[dim=31] time: 0.567428
[dim=30] time: 0.644275
[dim=29] time: 0.694
[dim=28] time: 0.731575
[dim=27] time: 0.75952
[dim=26] time: 0.78472
[dim=25] time: 0.807313
[dim=24] time: 0.835265
[dim=23] time: 0.860136
[dim=22] time: 0.884072
[dim=21] time: 0.905721
[dim=20] Time of backward = 0.927961sec.
AIC: 517.686
k: 21
